p cnf 161616 96
10442 0
10547 0
10644 0
10908 0
11445 0
11507 0
20205 0
20806 0
20946 0
21202 0
21403 0
21508 0
21647 0
30147 0
30203 0
30642 0
30848 0
31145 0
31206 0
31309 0
31443 0
40543 0
41142 0
41346 0
41506 0
50107 0
50246 0
50343 0
50608 0
51047 0
51509 0
60102 0
60245 0
60801 0
61203 0
61344 0
61446 0
70142 0
70505 0
70744 0
71109 0
71201 0
71304 0
71545 0
71607 0
80347 0
80702 0
81244 0
90509 0
91042 0
91447 0
100108 0
100244 0
100405 0
100502 0
100645 0
101046 0
101248 0
101606 0
110345 0
110447 0
110508 0
110901 0
111505 0
111604 0
120207 0
120705 0
121108 0
121442 0
121546 0
121648 0
130204 0
130445 0
130609 0
131242 0
140306 0
140409 0
140542 0
140643 0
140944 0
141107 0
141548 0
141601 0
150148 0
150202 0
150301 0
150546 0
150803 0
150909 0
151542 0
160243 0
160342 0
160807 0
161106 0
161245 0
161303 0
